# Solution for model GasLib-40
# Objective value = 1.3930642053194186e+01
loadshed[innode_1] 0
loadshed[innode_2] 0
loadshed[innode_3] 0
loadshed[innode_4] 0
loadshed[innode_5] 0
loadshed[innode_6] 0
loadshed[innode_7] 0
loadshed[innode_8] 0
loadshed[source_1] -2.7948715678429648e-01
loadshed[source_2] 6.7927437672533286e-02
loadshed[source_3] 0.29967799082961
loadshed[sink_1] 0
loadshed[sink_2] 0
loadshed[sink_3] 0
loadshed[sink_4] 0
loadshed[sink_5] 0
loadshed[sink_6] 0
loadshed[sink_7] 0
loadshed[sink_8] 0
loadshed[sink_9] 0
loadshed[sink_10] 0
loadshed[sink_11] 0
loadshed[sink_12] 8.5180995994053610e-01
loadshed[sink_13] 0
loadshed[sink_14] 0
loadshed[sink_15] 0
loadshed[sink_16] 0
loadshed[sink_17] 0
loadshed[sink_18] 0
loadshed[sink_19] 0
loadshed[sink_20] 0
loadshed[sink_21] 0
loadshed[sink_22] 0
loadshed[sink_23] 0
loadshed[sink_24] 0
loadshed[sink_25] 0
loadshed[sink_26] 0
loadshed[sink_27] 0
loadshed[sink_28] 0
loadshed[sink_29] 0
flow[source_1,sink_3] 2.0227448002912854e+02
flow[innode_1,sink_16] 1.6354166666666970e+01
flow[innode_6,sink_13] 3.7650657030289727e+00
flow[sink_13,sink_14] -1.2589100963637694e+01
flow[sink_14,sink_10] -2.8943267630304263e+01
flow[sink_25,sink_26] 2.3138185794680558e+02
flow[sink_26,sink_9] 1.3028685574901405e+02
flow[sink_9,sink_18] 1.1393268908234738e+02
flow[sink_26,sink_4] 8.4740835531124816e+01
flow[sink_4,sink_20] 2.2773248280458962e+01
flow[sink_18,sink_6] 9.7578522415680709e+01
flow[sink_25,innode_8] -1.6956614669579216e+02
flow[sink_6,sink_7] 4.8516022415680254e+01
flow[sink_6,sink_22] 3.2708333333333641e+01
flow[sink_7,sink_24] 3.5131857946805823e+01
flow[sink_22,sink_1] 1.6354166666666970e+01
flow[sink_24,sink_21] 1.8777691280139152e+01
flow[sink_21,sink_12] 2.4235246134724835e+00
flow[sink_7,sink_5] -2.9700021977916862e+00
flow[sink_5,sink_17] -1.9324168864458329e+01
flow[sink_17,sink_4] -4.5613420583999194e+01
flow[sink_17,sink_8] 9.9350850528742747e+00
flow[sink_3,sink_23] 16.3541666666697
flow[sink_8,sink_20] -6.4190816137922866e+00
flow[sink_25,sink_20] 0
flow[sink_25,sink_15] -8.1934943620709717e+01
flow[sink_15,sink_29] -9.8289110287376388e+01
flow[sink_29,sink_28] 1.6354166666667879e+01
flow[sink_29,sink_2] 1.6354166666684250e+01
flow[sink_2,sink_15] 0
flow[sink_29,innode_7] -1.4735161028739429e+02
flow[innode_4,sink_19] 4.2565393350488705e+01
flow[sink_19,innode_3] 0
flow[innode_4,innode_5] 6.8148707613149682e+01
flow[sink_27,innode_5] -6.8148707613149682e+01
flow[sink_27,sink_19] 5.1794540946483011e+01
flow[sink_10,sink_11] 3.2708333333333641e+01
flow[sink_10,innode_2] -7.8005767630304916e+01
flow[sink_10,innode_3] 0
flow[innode_6,sink_25] -3.7650657030289727e+00
flow[sink_11,innode_1] 1.6354166666666970e+01
flow[sink_19,innode_2] 7.8005767630304916e+01
flow[source_3,innode_4] 1.1071410096363839e+02
flow[source_2,innode_7] 1.4735161028739429e+02
flow[sink_3,innode_8] 1.6956614669579216e+02
pressure[innode_1] 7.5014189156894219e+01
pressure[innode_2] 7.9288817458131291e+01
pressure[innode_3] 7.9288817458131291e+01
pressure[innode_4] 81.01325
pressure[innode_5] 8.0966373725411188e+01
pressure[innode_6] 7.3795141455648974e+01
pressure[innode_7] 81.01325
pressure[innode_8] 8.0337123684914786e+01
pressure[source_1] 81.01325
pressure[source_2] 81.01325
pressure[source_3] 81.01325
pressure[sink_1] 4.0871909548647118e+01
pressure[sink_2] 7.6657902175618645e+01
pressure[sink_3] 8.0337123684914786e+01
pressure[sink_4] 4.6724883934984746e+01
pressure[sink_5] 4.3542178504571730e+01
pressure[sink_6] 4.2972987159034489e+01
pressure[sink_7] 4.2306977815961659e+01
pressure[sink_8] 4.4606812836108212e+01
pressure[sink_9] 4.9701048505788329e+01
pressure[sink_10] 7.5165890464497764e+01
pressure[sink_11] 7.5014189156894219e+01
pressure[sink_12] 1.01325
pressure[sink_13] 7.3774385277629108e+01
pressure[sink_14] 7.3796914546157822e+01
pressure[sink_15] 7.4192605771407486e+01
pressure[sink_16] 7.3992539322076539e+01
pressure[sink_17] 4.4981689405869432e+01
pressure[sink_18] 4.5578624236974811e+01
pressure[sink_19] 7.9288817458131291e+01
pressure[sink_20] 4.5054132551304960e+01
pressure[sink_21] 1.8756726974922664e+00
pressure[sink_22] 4.1935678691002124e+01
pressure[sink_23] 80.172405673255
pressure[sink_24] 2.0836181818638915e+00
pressure[sink_25] 7.3795141455648974e+01
pressure[sink_26] 5.7499053083485130e+01
pressure[sink_27] 8.0400865377493730e+01
pressure[sink_28] 7.6776889400465123e+01
pressure[sink_29] 77.0721716740823
interdiction[source_1,sink_3] 0
interdiction[innode_1,sink_16] 0
interdiction[innode_6,sink_13] 0
interdiction[sink_13,sink_14] 0
interdiction[sink_14,sink_10] 0
interdiction[sink_25,sink_26] 0
interdiction[sink_26,sink_9] 0
interdiction[sink_9,sink_18] 0
interdiction[sink_26,sink_4] 0
interdiction[sink_4,sink_20] 0
interdiction[sink_18,sink_6] 0
interdiction[sink_25,innode_8] 0
interdiction[sink_6,sink_7] 0
interdiction[sink_6,sink_22] 0
interdiction[sink_7,sink_24] 0
interdiction[sink_22,sink_1] 0
interdiction[sink_24,sink_21] 0
interdiction[sink_21,sink_12] 0
interdiction[sink_7,sink_5] 0
interdiction[sink_5,sink_17] 0
interdiction[sink_17,sink_4] 0
interdiction[sink_17,sink_8] 0
interdiction[sink_3,sink_23] 0
interdiction[sink_8,sink_20] 0
interdiction[sink_25,sink_20] 1
interdiction[sink_25,sink_15] 0
interdiction[sink_15,sink_29] 0
interdiction[sink_29,sink_28] 0
interdiction[sink_29,sink_2] 0
interdiction[sink_2,sink_15] 1
interdiction[sink_29,innode_7] 0
interdiction[innode_4,sink_19] 0
interdiction[sink_19,innode_3] 0
interdiction[innode_4,innode_5] 0
interdiction[sink_27,innode_5] 0
interdiction[sink_27,sink_19] 0
interdiction[sink_10,sink_11] 0
interdiction[sink_10,innode_2] 0
interdiction[sink_10,innode_3] 1
interdiction[innode_6,sink_25] 0
interdiction[sink_11,innode_1] 0
interdiction[sink_19,innode_2] 0
interdiction[source_3,innode_4] 0
interdiction[source_2,innode_7] 0
interdiction[sink_3,innode_8] 0
WCcheckFlow[source_1,sink_3] 39
WCcheckFlow[innode_1,sink_16] 1
WCcheckFlow[innode_6,sink_13] 13
WCcheckFlow[sink_13,sink_14] 12
WCcheckFlow[sink_14,sink_10] 11
WCcheckFlow[sink_25,sink_26] 15
WCcheckFlow[sink_26,sink_9] 12
WCcheckFlow[sink_9,sink_18] 11
WCcheckFlow[sink_26,sink_4] 2
WCcheckFlow[sink_4,sink_20] 1
WCcheckFlow[sink_18,sink_6] 10
WCcheckFlow[sink_25,innode_8] -36
WCcheckFlow[sink_6,sink_7] 7
WCcheckFlow[sink_6,sink_22] 2
WCcheckFlow[sink_7,sink_24] 3
WCcheckFlow[sink_22,sink_1] 1
WCcheckFlow[sink_24,sink_21] 2
WCcheckFlow[sink_21,sink_12] 1
WCcheckFlow[sink_7,sink_5] 3
WCcheckFlow[sink_5,sink_17] 2
WCcheckFlow[sink_17,sink_4] 0
WCcheckFlow[sink_17,sink_8] 1
WCcheckFlow[sink_3,sink_23] 1
WCcheckFlow[sink_8,sink_20] 0
WCcheckFlow[sink_25,sink_20] 0
WCcheckFlow[sink_25,sink_15] 6
WCcheckFlow[sink_15,sink_29] 5
WCcheckFlow[sink_29,sink_28] 1
WCcheckFlow[sink_29,sink_2] 1
WCcheckFlow[sink_2,sink_15] 0
WCcheckFlow[sink_29,innode_7] 2
WCcheckFlow[innode_4,sink_19] -4
WCcheckFlow[sink_19,innode_3] 1
WCcheckFlow[innode_4,innode_5] 2
WCcheckFlow[sink_27,innode_5] -1
WCcheckFlow[sink_27,sink_19] 0
WCcheckFlow[sink_10,sink_11] 3
WCcheckFlow[sink_10,innode_2] 7
WCcheckFlow[sink_10,innode_3] 0
WCcheckFlow[innode_6,sink_25] -14
WCcheckFlow[sink_11,innode_1] 2
WCcheckFlow[sink_19,innode_2] -6
WCcheckFlow[source_3,innode_4] -1
WCcheckFlow[source_2,innode_7] -1
WCcheckFlow[sink_3,innode_8] 37
